Optimal - objective value 0.40000000
      0 C0000000               1                     0.4
      1 C0000001               0                    -0.2
      2 C0000002 -2.7755576e-017                    -0.8
      0 X0000000             0.4                       0
      1 X0000001             0.6                       0
      2 X0000002             0.4                       0
